language ESSENCE' 1.0

letting n_classes be 27
letting n_options be 5
letting n_cars be 200
letting quantity_Function1D be
        [11, 2, 5, 8, 4, 10, 4, 2, 2, 4, 16, 36, 1, 3, 13, 2, 10, 1, 3, 6, 24, 8, 6, 2, 4, 4, 9; int(1..27)]
letting usage_RelationAsSet_Explicit_1 be
        [1, 1, 2, 2, 2, 3, 4, 4, 4, 5, 5, 5, 6, 6, 7, 7, 8, 8, 8, 8, 9, 9, 9, 10, 10, 11, 11, 12, 13, 13, 13, 14, 14,
         14, 15, 16, 16, 16, 17, 17, 17, 18, 18, 18, 18, 19, 19, 19, 20, 21, 21, 22, 23, 23, 23, 24, 24, 25, 25, 27, 27;
             int(1..61)]
letting usage_RelationAsSet_Explicit_2 be
        [2, 3, 3, 4, 5, 3, 1, 2, 3, 1, 2, 5, 1, 4, 2, 5, 1, 2, 3, 4, 2, 3, 5, 3, 4, 2, 4, 2, 1, 3, 5, 1, 4, 5, 1, 2, 4,
         5, 1, 2, 4, 1, 2, 3, 5, 1, 3, 4, 5, 1, 2, 4, 2, 3, 4, 1, 5, 3, 5, 1, 3;
             int(1..61)]
letting blksize_Function1D be [2, 3, 3, 5, 5; int(1..5)]
letting maxcars_Function1D be [1, 2, 1, 2, 1; int(1..5)]
letting fin1 be 27
letting fin2 be 36
letting fin3 be 5
letting fin4 be 2
letting fin5 be 5
letting fin6 be 5
letting fin7 be 61
